c Lingeling SAT Solver
c 
c Version azf 92032848c138b2f33629ad24394d60a3787a1046
c 
c Copyright (C) 2010-2014 Armin Biere JKU Linz Austria.
c All rights reserved.
c 
c released Don Mai 22 22:08:00 CEST 2014
c compiled Mon Oct  6 05:55:43 PDT 2014
c 
c gcc (Ubuntu 4.8.2-19ubuntu1) 4.8.2
c -Wall -O3 -DNDBLSCR -DNLGLOG -DNDEBUG -DNCHKSOL -DNLGLPICOSAT -DNLGLDRUPLIG
c -DNLGLYALSAT
c Linux ubuntu 3.13.0-32-generic x86_64
c 
c reading input file benchmark-sat/translations/gc-homer-193.cnf
c no embedded options
c found 'p cnf 108273 11023563' header
c read 108273 variables, 11023563 clauses, 22154277 literals in 0.00 seconds
s UNSATISFIABLE
c
c    0.000   2% simplifying
c    0.000   0% search
c ==================================
c    0.001 100% all
c 
c 0 decisions, 0.0 decisions/sec
c 0 conflicts, 0.0 conflicts/sec
c 1 propagations, 0.0 megaprops/sec
c 0.0 seconds, 140.2 MB
